p cnf 1309 1612
-9 40 -68 101 504 0
-9 40 -68 101 -504 0
-9 40 -68 -101 505 0
-9 40 -68 -101 -505 0
11 14 -82 102 506 0
11 14 -82 102 -506 0
11 14 -82 -102 507 0
11 14 -82 -102 -507 0
-55 -56 -80 103 508 0
-55 -56 -80 103 -508 0
-55 -56 -80 -103 509 0
-55 -56 -80 -103 -509 0
-2 73 89 104 510 0
-2 73 89 104 -510 0
-2 73 89 -104 511 0
-2 73 89 -104 -511 0
26 38 -54 105 512 0
26 38 -54 105 -512 0
26 38 -54 -105 513 0
26 38 -54 -105 -513 0
51 63 84 106 514 0
51 63 84 106 -514 0
51 63 84 -106 515 0
51 63 84 -106 -515 0
-32 37 97 107 516 0
-32 37 97 107 -516 0
-32 37 97 -107 517 0
-32 37 97 -107 -517 0
30 43 -52 108 518 0
30 43 -52 108 -518 0
30 43 -52 -108 519 0
30 43 -52 -108 -519 0
-8 -9 81 109 520 0
-8 -9 81 109 -520 0
-8 -9 81 -109 521 0
-8 -9 81 -109 -521 0
10 18 -53 110 522 0
10 18 -53 110 -522 0
10 18 -53 -110 523 0
10 18 -53 -110 -523 0
-8 12 27 111 524 0
-8 12 27 111 -524 0
-8 12 27 -111 525 0
-8 12 27 -111 -525 0
-22 -28 -95 112 526 0
-22 -28 -95 112 -526 0
-22 -28 -95 -112 527 0
-22 -28 -95 -112 -527 0
-22 44 -72 113 528 0
-22 44 -72 113 -528 0
-22 44 -72 -113 529 0
-22 44 -72 -113 -529 0
-47 -67 89 114 530 0
-47 -67 89 114 -530 0
-47 -67 89 -114 531 0
-47 -67 89 -114 -531 0
6 91 96 115 532 0
6 91 96 115 -532 0
6 91 96 -115 533 0
6 91 96 -115 -533 0
10 -26 -67 116 534 0
10 -26 -67 116 -534 0
10 -26 -67 -116 535 0
10 -26 -67 -116 -535 0
34 68 78 117 536 0
34 68 78 117 -536 0
34 68 78 -117 537 0
34 68 78 -117 -537 0
24 27 -42 118 538 0
24 27 -42 118 -538 0
24 27 -42 -118 539 0
24 27 -42 -118 -539 0
26 -27 -99 119 540 0
26 -27 -99 119 -540 0
26 -27 -99 -119 541 0
26 -27 -99 -119 -541 0
21 -29 -93 120 542 0
21 -29 -93 120 -542 0
21 -29 -93 -120 543 0
21 -29 -93 -120 -543 0
-4 43 -57 121 544 0
-4 43 -57 121 -544 0
-4 43 -57 -121 545 0
-4 43 -57 -121 -545 0
33 74 78 122 546 0
33 74 78 122 -546 0
33 74 78 -122 547 0
33 74 78 -122 -547 0
40 -56 58 123 548 0
40 -56 58 123 -548 0
40 -56 58 -123 549 0
40 -56 58 -123 -549 0
-13 15 82 124 550 0
-13 15 82 124 -550 0
-13 15 82 -124 551 0
-13 15 82 -124 -551 0
-3 30 -34 125 552 0
-3 30 -34 125 -552 0
-3 30 -34 -125 553 0
-3 30 -34 -125 -553 0
-2 8 -57 126 554 0
-2 8 -57 126 -554 0
-2 8 -57 -126 555 0
-2 8 -57 -126 -555 0
7 21 90 127 556 0
7 21 90 127 -556 0
7 21 90 -127 557 0
7 21 90 -127 -557 0
-14 -33 -66 128 558 0
-14 -33 -66 128 -558 0
-14 -33 -66 -128 559 0
-14 -33 -66 -128 -559 0
41 -73 97 129 560 0
41 -73 97 129 -560 0
41 -73 97 -129 561 0
41 -73 97 -129 -561 0
-25 -47 57 130 562 0
-25 -47 57 130 -562 0
-25 -47 57 -130 563 0
-25 -47 57 -130 -563 0
34 81 -86 131 564 0
34 81 -86 131 -564 0
34 81 -86 -131 565 0
34 81 -86 -131 -565 0
8 78 81 132 566 0
8 78 81 132 -566 0
8 78 81 -132 567 0
8 78 81 -132 -567 0
-39 -47 -64 133 568 0
-39 -47 -64 133 -568 0
-39 -47 -64 -133 569 0
-39 -47 -64 -133 -569 0
63 84 88 134 570 0
63 84 88 134 -570 0
63 84 88 -134 571 0
63 84 88 -134 -571 0
11 36 70 135 572 0
11 36 70 135 -572 0
11 36 70 -135 573 0
11 36 70 -135 -573 0
11 43 -57 136 574 0
11 43 -57 136 -574 0
11 43 -57 -136 575 0
11 43 -57 -136 -575 0
-31 -71 77 137 576 0
-31 -71 77 137 -576 0
-31 -71 77 -137 577 0
-31 -71 77 -137 -577 0
-29 71 84 138 578 0
-29 71 84 138 -578 0
-29 71 84 -138 579 0
-29 71 84 -138 -579 0
24 30 69 139 580 0
24 30 69 139 -580 0
24 30 69 -139 581 0
24 30 69 -139 -581 0
8 17 -80 140 582 0
8 17 -80 140 -582 0
8 17 -80 -140 583 0
8 17 -80 -140 -583 0
-14 60 73 141 584 0
-14 60 73 141 -584 0
-14 60 73 -141 585 0
-14 60 73 -141 -585 0
32 -66 93 142 586 0
32 -66 93 142 -586 0
32 -66 93 -142 587 0
32 -66 93 -142 -587 0
-53 -70 -81 143 588 0
-53 -70 -81 143 -588 0
-53 -70 -81 -143 589 0
-53 -70 -81 -143 -589 0
-19 24 100 144 590 0
-19 24 100 144 -590 0
-19 24 100 -144 591 0
-19 24 100 -144 -591 0
-17 94 95 145 592 0
-17 94 95 145 -592 0
-17 94 95 -145 593 0
-17 94 95 -145 -593 0
-35 36 -61 146 594 0
-35 36 -61 146 -594 0
-35 36 -61 -146 595 0
-35 36 -61 -146 -595 0
33 -37 -99 147 596 0
33 -37 -99 147 -596 0
33 -37 -99 -147 597 0
33 -37 -99 -147 -597 0
-8 28 50 148 598 0
-8 28 50 148 -598 0
-8 28 50 -148 599 0
-8 28 50 -148 -599 0
-49 -54 78 149 600 0
-49 -54 78 149 -600 0
-49 -54 78 -149 601 0
-49 -54 78 -149 -601 0
8 -63 81 150 602 0
8 -63 81 150 -602 0
8 -63 81 -150 603 0
8 -63 81 -150 -603 0
18 -66 -74 151 604 0
18 -66 -74 151 -604 0
18 -66 -74 -151 605 0
18 -66 -74 -151 -605 0
-11 -50 -98 152 606 0
-11 -50 -98 152 -606 0
-11 -50 -98 -152 607 0
-11 -50 -98 -152 -607 0
-1 -17 58 153 608 0
-1 -17 58 153 -608 0
-1 -17 58 -153 609 0
-1 -17 58 -153 -609 0
2 -46 63 154 610 0
2 -46 63 154 -610 0
2 -46 63 -154 611 0
2 -46 63 -154 -611 0
-6 -63 -90 155 612 0
-6 -63 -90 155 -612 0
-6 -63 -90 -155 613 0
-6 -63 -90 -155 -613 0
-41 69 -94 156 614 0
-41 69 -94 156 -614 0
-41 69 -94 -156 615 0
-41 69 -94 -156 -615 0
-5 -9 -94 157 616 0
-5 -9 -94 157 -616 0
-5 -9 -94 -157 617 0
-5 -9 -94 -157 -617 0
2 69 -88 158 618 0
2 69 -88 158 -618 0
2 69 -88 -158 619 0
2 69 -88 -158 -619 0
-4 68 -76 159 620 0
-4 68 -76 159 -620 0
-4 68 -76 -159 621 0
-4 68 -76 -159 -621 0
8 26 90 160 622 0
8 26 90 160 -622 0
8 26 90 -160 623 0
8 26 90 -160 -623 0
10 25 -94 161 624 0
10 25 -94 161 -624 0
10 25 -94 -161 625 0
10 25 -94 -161 -625 0
-52 65 -86 162 626 0
-52 65 -86 162 -626 0
-52 65 -86 -162 627 0
-52 65 -86 -162 -627 0
4 -49 -64 163 628 0
4 -49 -64 163 -628 0
4 -49 -64 -163 629 0
4 -49 -64 -163 -629 0
51 53 96 164 630 0
51 53 96 164 -630 0
51 53 96 -164 631 0
51 53 96 -164 -631 0
-9 -50 60 165 632 0
-9 -50 60 165 -632 0
-9 -50 60 -165 633 0
-9 -50 60 -165 -633 0
-29 50 -100 166 634 0
-29 50 -100 166 -634 0
-29 50 -100 -166 635 0
-29 50 -100 -166 -635 0
58 -67 89 167 636 0
58 -67 89 167 -636 0
58 -67 89 -167 637 0
58 -67 89 -167 -637 0
-47 -56 98 168 638 0
-47 -56 98 168 -638 0
-47 -56 98 -168 639 0
-47 -56 98 -168 -639 0
14 34 -42 169 640 0
14 34 -42 169 -640 0
14 34 -42 -169 641 0
14 34 -42 -169 -641 0
-13 21 27 170 642 0
-13 21 27 170 -642 0
-13 21 27 -170 643 0
-13 21 27 -170 -643 0
-15 -69 -97 171 644 0
-15 -69 -97 171 -644 0
-15 -69 -97 -171 645 0
-15 -69 -97 -171 -645 0
16 -86 99 172 646 0
16 -86 99 172 -646 0
16 -86 99 -172 647 0
16 -86 99 -172 -647 0
52 69 97 173 648 0
52 69 97 173 -648 0
52 69 97 -173 649 0
52 69 97 -173 -649 0
8 -16 -32 174 650 0
8 -16 -32 174 -650 0
8 -16 -32 -174 651 0
8 -16 -32 -174 -651 0
46 -75 -98 175 652 0
46 -75 -98 175 -652 0
46 -75 -98 -175 653 0
46 -75 -98 -175 -653 0
23 82 -92 176 654 0
23 82 -92 176 -654 0
23 82 -92 -176 655 0
23 82 -92 -176 -655 0
-2 -39 -64 177 656 0
-2 -39 -64 177 -656 0
-2 -39 -64 -177 657 0
-2 -39 -64 -177 -657 0
15 28 82 178 658 0
15 28 82 178 -658 0
15 28 82 -178 659 0
15 28 82 -178 -659 0
21 -54 -74 179 660 0
21 -54 -74 179 -660 0
21 -54 -74 -179 661 0
21 -54 -74 -179 -661 0
28 -48 79 180 662 0
28 -48 79 180 -662 0
28 -48 79 -180 663 0
28 -48 79 -180 -663 0
7 43 60 181 664 0
7 43 60 181 -664 0
7 43 60 -181 665 0
7 43 60 -181 -665 0
15 55 -70 182 666 0
15 55 -70 182 -666 0
15 55 -70 -182 667 0
15 55 -70 -182 -667 0
7 -45 48 183 668 0
7 -45 48 183 -668 0
7 -45 48 -183 669 0
7 -45 48 -183 -669 0
26 -59 -71 184 670 0
26 -59 -71 184 -670 0
26 -59 -71 -184 671 0
26 -59 -71 -184 -671 0
-1 -32 52 185 672 0
-1 -32 52 185 -672 0
-1 -32 52 -185 673 0
-1 -32 52 -185 -673 0
-38 -58 69 186 674 0
-38 -58 69 186 -674 0
-38 -58 69 -186 675 0
-38 -58 69 -186 -675 0
4 71 -95 187 676 0
4 71 -95 187 -676 0
4 71 -95 -187 677 0
4 71 -95 -187 -677 0
12 16 71 188 678 0
12 16 71 188 -678 0
12 16 71 -188 679 0
12 16 71 -188 -679 0
-12 -47 91 189 680 0
-12 -47 91 189 -680 0
-12 -47 91 -189 681 0
-12 -47 91 -189 -681 0
73 75 -82 190 682 0
73 75 -82 190 -682 0
73 75 -82 -190 683 0
73 75 -82 -190 -683 0
-4 -7 20 191 684 0
-4 -7 20 191 -684 0
-4 -7 20 -191 685 0
-4 -7 20 -191 -685 0
4 90 96 192 686 0
4 90 96 192 -686 0
4 90 96 -192 687 0
4 90 96 -192 -687 0
8 43 88 193 688 0
8 43 88 193 -688 0
8 43 88 -193 689 0
8 43 88 -193 -689 0
-27 -37 69 194 690 0
-27 -37 69 194 -690 0
-27 -37 69 -194 691 0
-27 -37 69 -194 -691 0
-17 -51 -99 195 692 0
-17 -51 -99 195 -692 0
-17 -51 -99 -195 693 0
-17 -51 -99 -195 -693 0
-41 -77 -90 196 694 0
-41 -77 -90 196 -694 0
-41 -77 -90 -196 695 0
-41 -77 -90 -196 -695 0
-41 -82 -84 197 696 0
-41 -82 -84 197 -696 0
-41 -82 -84 -197 697 0
-41 -82 -84 -197 -697 0
-33 -55 -71 198 698 0
-33 -55 -71 198 -698 0
-33 -55 -71 -198 699 0
-33 -55 -71 -198 -699 0
-2 -9 -25 199 700 0
-2 -9 -25 199 -700 0
-2 -9 -25 -199 701 0
-2 -9 -25 -199 -701 0
-4 -9 80 200 702 0
-4 -9 80 200 -702 0
-4 -9 80 -200 703 0
-4 -9 80 -200 -703 0
16 -40 80 201 704 0
16 -40 80 201 -704 0
16 -40 80 -201 705 0
16 -40 80 -201 -705 0
-64 95 98 202 706 0
-64 95 98 202 -706 0
-64 95 98 -202 707 0
-64 95 98 -202 -707 0
15 31 -50 203 708 0
15 31 -50 203 -708 0
15 31 -50 -203 709 0
15 31 -50 -203 -709 0
13 24 -90 204 710 0
13 24 -90 204 -710 0
13 24 -90 -204 711 0
13 24 -90 -204 -711 0
41 44 76 205 712 0
41 44 76 205 -712 0
41 44 76 -205 713 0
41 44 76 -205 -713 0
-15 -73 -83 206 714 0
-15 -73 -83 206 -714 0
-15 -73 -83 -206 715 0
-15 -73 -83 -206 -715 0
-11 37 -88 207 716 0
-11 37 -88 207 -716 0
-11 37 -88 -207 717 0
-11 37 -88 -207 -717 0
19 -85 -97 208 718 0
19 -85 -97 208 -718 0
19 -85 -97 -208 719 0
19 -85 -97 -208 -719 0
10 44 82 209 720 0
10 44 82 209 -720 0
10 44 82 -209 721 0
10 44 82 -209 -721 0
-13 -24 -68 210 722 0
-13 -24 -68 210 -722 0
-13 -24 -68 -210 723 0
-13 -24 -68 -210 -723 0
-1 75 76 211 724 0
-1 75 76 211 -724 0
-1 75 76 -211 725 0
-1 75 76 -211 -725 0
74 -88 -98 212 726 0
74 -88 -98 212 -726 0
74 -88 -98 -212 727 0
74 -88 -98 -212 -727 0
-11 26 -91 213 728 0
-11 26 -91 213 -728 0
-11 26 -91 -213 729 0
-11 26 -91 -213 -729 0
15 25 70 214 730 0
15 25 70 214 -730 0
15 25 70 -214 731 0
15 25 70 -214 -731 0
31 63 -77 215 732 0
31 63 -77 215 -732 0
31 63 -77 -215 733 0
31 63 -77 -215 -733 0
-26 -38 -98 216 734 0
-26 -38 -98 216 -734 0
-26 -38 -98 -216 735 0
-26 -38 -98 -216 -735 0
25 61 -62 217 736 0
25 61 -62 217 -736 0
25 61 -62 -217 737 0
25 61 -62 -217 -737 0
23 -31 -38 218 738 0
23 -31 -38 218 -738 0
23 -31 -38 -218 739 0
23 -31 -38 -218 -739 0
-34 50 -67 219 740 0
-34 50 -67 219 -740 0
-34 50 -67 -219 741 0
-34 50 -67 -219 -741 0
75 -76 78 220 742 0
75 -76 78 220 -742 0
75 -76 78 -220 743 0
75 -76 78 -220 -743 0
-7 22 76 221 744 0
-7 22 76 221 -744 0
-7 22 76 -221 745 0
-7 22 76 -221 -745 0
-18 59 -93 222 746 0
-18 59 -93 222 -746 0
-18 59 -93 -222 747 0
-18 59 -93 -222 -747 0
-12 33 -80 223 748 0
-12 33 -80 223 -748 0
-12 33 -80 -223 749 0
-12 33 -80 -223 -749 0
-2 50 60 224 750 0
-2 50 60 224 -750 0
-2 50 60 -224 751 0
-2 50 60 -224 -751 0
-36 43 -93 225 752 0
-36 43 -93 225 -752 0
-36 43 -93 -225 753 0
-36 43 -93 -225 -753 0
20 -41 50 226 754 0
20 -41 50 226 -754 0
20 -41 50 -226 755 0
20 -41 50 -226 -755 0
-7 35 -51 227 756 0
-7 35 -51 227 -756 0
-7 35 -51 -227 757 0
-7 35 -51 -227 -757 0
59 -75 -98 228 758 0
59 -75 -98 228 -758 0
59 -75 -98 -228 759 0
59 -75 -98 -228 -759 0
-36 -61 78 229 760 0
-36 -61 78 229 -760 0
-36 -61 78 -229 761 0
-36 -61 78 -229 -761 0
58 -63 68 230 762 0
58 -63 68 230 -762 0
58 -63 68 -230 763 0
58 -63 68 -230 -763 0
33 -48 83 231 764 0
33 -48 83 231 -764 0
33 -48 83 -231 765 0
33 -48 83 -231 -765 0
27 -70 94 232 766 0
27 -70 94 232 -766 0
27 -70 94 -232 767 0
27 -70 94 -232 -767 0
-40 70 92 233 768 0
-40 70 92 233 -768 0
-40 70 92 -233 769 0
-40 70 92 -233 -769 0
-53 -57 76 234 770 0
-53 -57 76 234 -770 0
-53 -57 76 -234 771 0
-53 -57 76 -234 -771 0
31 -35 83 235 772 0
31 -35 83 235 -772 0
31 -35 83 -235 773 0
31 -35 83 -235 -773 0
25 83 -88 236 774 0
25 83 -88 236 -774 0
25 83 -88 -236 775 0
25 83 -88 -236 -775 0
24 -34 67 237 776 0
24 -34 67 237 -776 0
24 -34 67 -237 777 0
24 -34 67 -237 -777 0
58 78 -89 238 778 0
58 78 -89 238 -778 0
58 78 -89 -238 779 0
58 78 -89 -238 -779 0
16 -88 99 239 780 0
16 -88 99 239 -780 0
16 -88 99 -239 781 0
16 -88 99 -239 -781 0
57 -67 85 240 782 0
57 -67 85 240 -782 0
57 -67 85 -240 783 0
57 -67 85 -240 -783 0
-30 43 80 241 784 0
-30 43 80 241 -784 0
-30 43 80 -241 785 0
-30 43 80 -241 -785 0
-34 -92 94 242 786 0
-34 -92 94 242 -786 0
-34 -92 94 -242 787 0
-34 -92 94 -242 -787 0
-2 -7 -29 243 788 0
-2 -7 -29 243 -788 0
-2 -7 -29 -243 789 0
-2 -7 -29 -243 -789 0
-16 -51 54 244 790 0
-16 -51 54 244 -790 0
-16 -51 54 -244 791 0
-16 -51 54 -244 -791 0
-38 -50 -51 245 792 0
-38 -50 -51 245 -792 0
-38 -50 -51 -245 793 0
-38 -50 -51 -245 -793 0
20 24 -63 246 794 0
20 24 -63 246 -794 0
20 24 -63 -246 795 0
20 24 -63 -246 -795 0
-11 86 97 247 796 0
-11 86 97 247 -796 0
-11 86 97 -247 797 0
-11 86 97 -247 -797 0
-20 -27 -28 248 798 0
-20 -27 -28 248 -798 0
-20 -27 -28 -248 799 0
-20 -27 -28 -248 -799 0
-11 -19 -27 249 800 0
-11 -19 -27 249 -800 0
-11 -19 -27 -249 801 0
-11 -19 -27 -249 -801 0
-25 -40 -92 250 802 0
-25 -40 -92 250 -802 0
-25 -40 -92 -250 803 0
-25 -40 -92 -250 -803 0
-48 -57 99 251 804 0
-48 -57 99 251 -804 0
-48 -57 99 -251 805 0
-48 -57 99 -251 -805 0
3 32 -90 252 806 0
3 32 -90 252 -806 0
3 32 -90 -252 807 0
3 32 -90 -252 -807 0
-32 55 57 253 808 0
-32 55 57 253 -808 0
-32 55 57 -253 809 0
-32 55 57 -253 -809 0
-15 39 -71 254 810 0
-15 39 -71 254 -810 0
-15 39 -71 -254 811 0
-15 39 -71 -254 -811 0
-3 33 -52 255 812 0
-3 33 -52 255 -812 0
-3 33 -52 -255 813 0
-3 33 -52 -255 -813 0
-34 -49 -90 256 814 0
-34 -49 -90 256 -814 0
-34 -49 -90 -256 815 0
-34 -49 -90 -256 -815 0
31 -85 -94 257 816 0
31 -85 -94 257 -816 0
31 -85 -94 -257 817 0
31 -85 -94 -257 -817 0
-41 75 98 258 818 0
-41 75 98 258 -818 0
-41 75 98 -258 819 0
-41 75 98 -258 -819 0
2 -21 97 259 820 0
2 -21 97 259 -820 0
2 -21 97 -259 821 0
2 -21 97 -259 -821 0
-16 22 -95 260 822 0
-16 22 -95 260 -822 0
-16 22 -95 -260 823 0
-16 22 -95 -260 -823 0
-56 89 98 261 824 0
-56 89 98 261 -824 0
-56 89 98 -261 825 0
-56 89 98 -261 -825 0
30 -36 56 262 826 0
30 -36 56 262 -826 0
30 -36 56 -262 827 0
30 -36 56 -262 -827 0
30 -60 89 263 828 0
30 -60 89 263 -828 0
30 -60 89 -263 829 0
30 -60 89 -263 -829 0
-47 -60 -95 264 830 0
-47 -60 -95 264 -830 0
-47 -60 -95 -264 831 0
-47 -60 -95 -264 -831 0
2 -20 81 265 832 0
2 -20 81 265 -832 0
2 -20 81 -265 833 0
2 -20 81 -265 -833 0
-84 89 93 266 834 0
-84 89 93 266 -834 0
-84 89 93 -266 835 0
-84 89 93 -266 -835 0
-1 44 -69 267 836 0
-1 44 -69 267 -836 0
-1 44 -69 -267 837 0
-1 44 -69 -267 -837 0
-29 -62 -98 268 838 0
-29 -62 -98 268 -838 0
-29 -62 -98 -268 839 0
-29 -62 -98 -268 -839 0
-19 23 53 269 840 0
-19 23 53 269 -840 0
-19 23 53 -269 841 0
-19 23 53 -269 -841 0
48 60 -84 270 842 0
48 60 -84 270 -842 0
48 60 -84 -270 843 0
48 60 -84 -270 -843 0
-14 -68 -87 271 844 0
-14 -68 -87 271 -844 0
-14 -68 -87 -271 845 0
-14 -68 -87 -271 -845 0
-1 -12 -48 272 846 0
-1 -12 -48 272 -846 0
-1 -12 -48 -272 847 0
-1 -12 -48 -272 -847 0
26 -39 -62 273 848 0
26 -39 -62 273 -848 0
26 -39 -62 -273 849 0
26 -39 -62 -273 -849 0
87 -92 99 274 850 0
87 -92 99 274 -850 0
87 -92 99 -274 851 0
87 -92 99 -274 -851 0
-30 62 -89 275 852 0
-30 62 -89 275 -852 0
-30 62 -89 -275 853 0
-30 62 -89 -275 -853 0
-9 20 90 276 854 0
-9 20 90 276 -854 0
-9 20 90 -276 855 0
-9 20 90 -276 -855 0
-4 36 -39 277 856 0
-4 36 -39 277 -856 0
-4 36 -39 -277 857 0
-4 36 -39 -277 -857 0
-39 54 76 278 858 0
-39 54 76 278 -858 0
-39 54 76 -278 859 0
-39 54 76 -278 -859 0
-23 -30 -66 279 860 0
-23 -30 -66 279 -860 0
-23 -30 -66 -279 861 0
-23 -30 -66 -279 -861 0
-34 -53 99 280 862 0
-34 -53 99 280 -862 0
-34 -53 99 -280 863 0
-34 -53 99 -280 -863 0
32 -75 82 281 864 0
32 -75 82 281 -864 0
32 -75 82 -281 865 0
32 -75 82 -281 -865 0
-16 45 89 282 866 0
-16 45 89 282 -866 0
-16 45 89 -282 867 0
-16 45 89 -282 -867 0
-33 -73 79 283 868 0
-33 -73 79 283 -868 0
-33 -73 79 -283 869 0
-33 -73 79 -283 -869 0
-10 23 -100 284 870 0
-10 23 -100 284 -870 0
-10 23 -100 -284 871 0
-10 23 -100 -284 -871 0
-17 -69 -90 285 872 0
-17 -69 -90 285 -872 0
-17 -69 -90 -285 873 0
-17 -69 -90 -285 -873 0
35 -86 -96 286 874 0
35 -86 -96 286 -874 0
35 -86 -96 -286 875 0
35 -86 -96 -286 -875 0
-13 -32 54 287 876 0
-13 -32 54 287 -876 0
-13 -32 54 -287 877 0
-13 -32 54 -287 -877 0
-20 -67 92 288 878 0
-20 -67 92 288 -878 0
-20 -67 92 -288 879 0
-20 -67 92 -288 -879 0
11 83 98 289 880 0
11 83 98 289 -880 0
11 83 98 -289 881 0
11 83 98 -289 -881 0
-42 -47 82 290 882 0
-42 -47 82 290 -882 0
-42 -47 82 -290 883 0
-42 -47 82 -290 -883 0
17 -18 -84 291 884 0
17 -18 -84 291 -884 0
17 -18 -84 -291 885 0
17 -18 -84 -291 -885 0
20 55 -92 292 886 0
20 55 -92 292 -886 0
20 55 -92 -292 887 0
20 55 -92 -292 -887 0
-13 19 27 293 888 0
-13 19 27 293 -888 0
-13 19 27 -293 889 0
-13 19 27 -293 -889 0
13 81 -82 294 890 0
13 81 -82 294 -890 0
13 81 -82 -294 891 0
13 81 -82 -294 -891 0
-14 42 -100 295 892 0
-14 42 -100 295 -892 0
-14 42 -100 -295 893 0
-14 42 -100 -295 -893 0
21 70 -92 296 894 0
21 70 -92 296 -894 0
21 70 -92 -296 895 0
21 70 -92 -296 -895 0
-34 -42 -69 297 896 0
-34 -42 -69 297 -896 0
-34 -42 -69 -297 897 0
-34 -42 -69 -297 -897 0
11 65 -84 298 898 0
11 65 -84 298 -898 0
11 65 -84 -298 899 0
11 65 -84 -298 -899 0
-13 19 63 299 900 0
-13 19 63 299 -900 0
-13 19 63 -299 901 0
-13 19 63 -299 -901 0
22 -78 -86 300 902 0
22 -78 -86 300 -902 0
22 -78 -86 -300 903 0
22 -78 -86 -300 -903 0
37 -41 -98 301 904 0
37 -41 -98 301 -904 0
37 -41 -98 -301 905 0
37 -41 -98 -301 -905 0
45 -68 -84 302 906 0
45 -68 -84 302 -906 0
45 -68 -84 -302 907 0
45 -68 -84 -302 -907 0
28 37 -52 303 908 0
28 37 -52 303 -908 0
28 37 -52 -303 909 0
28 37 -52 -303 -909 0
34 73 91 304 910 0
34 73 91 304 -910 0
34 73 91 -304 911 0
34 73 91 -304 -911 0
-13 -54 -68 305 912 0
-13 -54 -68 305 -912 0
-13 -54 -68 -305 913 0
-13 -54 -68 -305 -913 0
-43 86 -100 306 914 0
-43 86 -100 306 -914 0
-43 86 -100 -306 915 0
-43 86 -100 -306 -915 0
-42 -55 94 307 916 0
-42 -55 94 307 -916 0
-42 -55 94 -307 917 0
-42 -55 94 -307 -917 0
15 -71 -92 308 918 0
15 -71 -92 308 -918 0
15 -71 -92 -308 919 0
15 -71 -92 -308 -919 0
-11 66 88 309 920 0
-11 66 88 309 -920 0
-11 66 88 -309 921 0
-11 66 88 -309 -921 0
31 52 -65 310 922 0
31 52 -65 310 -922 0
31 52 -65 -310 923 0
31 52 -65 -310 -923 0
-7 38 -66 311 924 0
-7 38 -66 311 -924 0
-7 38 -66 -311 925 0
-7 38 -66 -311 -925 0
39 53 -89 312 926 0
39 53 -89 312 -926 0
39 53 -89 -312 927 0
39 53 -89 -312 -927 0
-54 67 -84 313 928 0
-54 67 -84 313 -928 0
-54 67 -84 -313 929 0
-54 67 -84 -313 -929 0
39 72 92 314 930 0
39 72 92 314 -930 0
39 72 92 -314 931 0
39 72 92 -314 -931 0
26 88 -89 315 932 0
26 88 -89 315 -932 0
26 88 -89 -315 933 0
26 88 -89 -315 -933 0
21 24 98 316 934 0
21 24 98 316 -934 0
21 24 98 -316 935 0
21 24 98 -316 -935 0
-12 26 55 317 936 0
-12 26 55 317 -936 0
-12 26 55 -317 937 0
-12 26 55 -317 -937 0
15 24 57 318 938 0
15 24 57 318 -938 0
15 24 57 -318 939 0
15 24 57 -318 -939 0
9 75 -94 319 940 0
9 75 -94 319 -940 0
9 75 -94 -319 941 0
9 75 -94 -319 -941 0
-3 -44 87 320 942 0
-3 -44 87 320 -942 0
-3 -44 87 -320 943 0
-3 -44 87 -320 -943 0
-21 -25 -71 321 944 0
-21 -25 -71 321 -944 0
-21 -25 -71 -321 945 0
-21 -25 -71 -321 -945 0
-22 40 -75 322 946 0
-22 40 -75 322 -946 0
-22 40 -75 -322 947 0
-22 40 -75 -322 -947 0
23 28 69 323 948 0
23 28 69 323 -948 0
23 28 69 -323 949 0
23 28 69 -323 -949 0
-1 61 -69 324 950 0
-1 61 -69 324 -950 0
-1 61 -69 -324 951 0
-1 61 -69 -324 -951 0
9 25 35 325 952 0
9 25 35 325 -952 0
9 25 35 -325 953 0
9 25 35 -325 -953 0
-39 -66 87 326 954 0
-39 -66 87 326 -954 0
-39 -66 87 -326 955 0
-39 -66 87 -326 -955 0
48 -89 -98 327 956 0
48 -89 -98 327 -956 0
48 -89 -98 -327 957 0
48 -89 -98 -327 -957 0
-12 22 -38 328 958 0
-12 22 -38 328 -958 0
-12 22 -38 -328 959 0
-12 22 -38 -328 -959 0
6 -57 -67 329 960 0
6 -57 -67 329 -960 0
6 -57 -67 -329 961 0
6 -57 -67 -329 -961 0
-13 -21 46 330 962 0
-13 -21 46 330 -962 0
-13 -21 46 -330 963 0
-13 -21 46 -330 -963 0
18 24 27 331 964 0
18 24 27 331 -964 0
18 24 27 -331 965 0
18 24 27 -331 -965 0
2 85 94 332 966 0
2 85 94 332 -966 0
2 85 94 -332 967 0
2 85 94 -332 -967 0
-34 -57 -72 333 968 0
-34 -57 -72 333 -968 0
-34 -57 -72 -333 969 0
-34 -57 -72 -333 -969 0
-26 27 -47 334 970 0
-26 27 -47 334 -970 0
-26 27 -47 -334 971 0
-26 27 -47 -334 -971 0
-4 41 -49 335 972 0
-4 41 -49 335 -972 0
-4 41 -49 -335 973 0
-4 41 -49 -335 -973 0
-16 52 -99 336 974 0
-16 52 -99 336 -974 0
-16 52 -99 -336 975 0
-16 52 -99 -336 -975 0
-23 89 -95 337 976 0
-23 89 -95 337 -976 0
-23 89 -95 -337 977 0
-23 89 -95 -337 -977 0
35 -44 -69 338 978 0
35 -44 -69 338 -978 0
35 -44 -69 -338 979 0
35 -44 -69 -338 -979 0
-12 28 -74 339 980 0
-12 28 -74 339 -980 0
-12 28 -74 -339 981 0
-12 28 -74 -339 -981 0
1 17 -60 340 982 0
1 17 -60 340 -982 0
1 17 -60 -340 983 0
1 17 -60 -340 -983 0
-23 -26 -81 341 984 0
-23 -26 -81 341 -984 0
-23 -26 -81 -341 985 0
-23 -26 -81 -341 -985 0
54 -81 96 342 986 0
54 -81 96 342 -986 0
54 -81 96 -342 987 0
54 -81 96 -342 -987 0
27 57 69 343 988 0
27 57 69 343 -988 0
27 57 69 -343 989 0
27 57 69 -343 -989 0
-5 -41 -83 344 990 0
-5 -41 -83 344 -990 0
-5 -41 -83 -344 991 0
-5 -41 -83 -344 -991 0
-22 23 -66 345 992 0
-22 23 -66 345 -992 0
-22 23 -66 -345 993 0
-22 23 -66 -345 -993 0
67 72 86 346 994 0
67 72 86 346 -994 0
67 72 86 -346 995 0
67 72 86 -346 -995 0
-7 71 83 347 996 0
-7 71 83 347 -996 0
-7 71 83 -347 997 0
-7 71 83 -347 -997 0
-56 -62 69 348 998 0
-56 -62 69 348 -998 0
-56 -62 69 -348 999 0
-56 -62 69 -348 -999 0
-44 68 -81 349 1000 0
-44 68 -81 349 -1000 0
-44 68 -81 -349 1001 0
-44 68 -81 -349 -1001 0
-37 60 -78 350 1002 0
-37 60 -78 350 -1002 0
-37 60 -78 -350 1003 0
-37 60 -78 -350 -1003 0
-2 84 -88 351 1004 0
-2 84 -88 351 -1004 0
-2 84 -88 -351 1005 0
-2 84 -88 -351 -1005 0
14 28 53 352 1006 0
14 28 53 352 -1006 0
14 28 53 -352 1007 0
14 28 53 -352 -1007 0
4 31 -100 353 1008 0
4 31 -100 353 -1008 0
4 31 -100 -353 1009 0
4 31 -100 -353 -1009 0
12 33 -63 354 1010 0
12 33 -63 354 -1010 0
12 33 -63 -354 1011 0
12 33 -63 -354 -1011 0
28 52 -68 355 1012 0
28 52 -68 355 -1012 0
28 52 -68 -355 1013 0
28 52 -68 -355 -1013 0
-13 -14 25 356 1014 0
-13 -14 25 356 -1014 0
-13 -14 25 -356 1015 0
-13 -14 25 -356 -1015 0
21 43 44 357 1016 0
21 43 44 357 -1016 0
21 43 44 -357 1017 0
21 43 44 -357 -1017 0
-9 -50 -72 358 1018 0
-9 -50 -72 358 -1018 0
-9 -50 -72 -358 1019 0
-9 -50 -72 -358 -1019 0
-1 -11 25 359 1020 0
-1 -11 25 359 -1020 0
-1 -11 25 -359 1021 0
-1 -11 25 -359 -1021 0
21 57 92 360 1022 0
21 57 92 360 -1022 0
21 57 92 -360 1023 0
21 57 92 -360 -1023 0
5 -36 48 361 1024 0
5 -36 48 361 -1024 0
5 -36 48 -361 1025 0
5 -36 48 -361 -1025 0
-21 -26 -36 362 1026 0
-21 -26 -36 362 -1026 0
-21 -26 -36 -362 1027 0
-21 -26 -36 -362 -1027 0
44 51 64 363 1028 0
44 51 64 363 -1028 0
44 51 64 -363 1029 0
44 51 64 -363 -1029 0
7 14 -95 364 1030 0
7 14 -95 364 -1030 0
7 14 -95 -364 1031 0
7 14 -95 -364 -1031 0
-25 -71 -87 365 1032 0
-25 -71 -87 365 -1032 0
-25 -71 -87 -365 1033 0
-25 -71 -87 -365 -1033 0
-8 13 -57 366 1034 0
-8 13 -57 366 -1034 0
-8 13 -57 -366 1035 0
-8 13 -57 -366 -1035 0
-10 -49 -84 367 1036 0
-10 -49 -84 367 -1036 0
-10 -49 -84 -367 1037 0
-10 -49 -84 -367 -1037 0
11 86 -93 368 1038 0
11 86 -93 368 -1038 0
11 86 -93 -368 1039 0
11 86 -93 -368 -1039 0
66 -75 78 369 1040 0
66 -75 78 369 -1040 0
66 -75 78 -369 1041 0
66 -75 78 -369 -1041 0
31 -47 49 370 1042 0
31 -47 49 370 -1042 0
31 -47 49 -370 1043 0
31 -47 49 -370 -1043 0
-36 -41 -55 371 1044 0
-36 -41 -55 371 -1044 0
-36 -41 -55 -371 1045 0
-36 -41 -55 -371 -1045 0
4 -35 -41 372 1046 0
4 -35 -41 372 -1046 0
4 -35 -41 -372 1047 0
4 -35 -41 -372 -1047 0
1 10 14 373 1048 0
1 10 14 373 -1048 0
1 10 14 -373 1049 0
1 10 14 -373 -1049 0
32 47 -65 374 1050 0
32 47 -65 374 -1050 0
32 47 -65 -374 1051 0
32 47 -65 -374 -1051 0
8 -15 94 375 1052 0
8 -15 94 375 -1052 0
8 -15 94 -375 1053 0
8 -15 94 -375 -1053 0
32 34 -99 376 1054 0
32 34 -99 376 -1054 0
32 34 -99 -376 1055 0
32 34 -99 -376 -1055 0
-36 -49 87 377 1056 0
-36 -49 87 377 -1056 0
-36 -49 87 -377 1057 0
-36 -49 87 -377 -1057 0
-20 30 -85 378 1058 0
-20 30 -85 378 -1058 0
-20 30 -85 -378 1059 0
-20 30 -85 -378 -1059 0
-53 -81 -98 379 1060 0
-53 -81 -98 379 -1060 0
-53 -81 -98 -379 1061 0
-53 -81 -98 -379 -1061 0
-20 -53 69 380 1062 0
-20 -53 69 380 -1062 0
-20 -53 69 -380 1063 0
-20 -53 69 -380 -1063 0
22 23 -53 381 1064 0
22 23 -53 381 -1064 0
22 23 -53 -381 1065 0
22 23 -53 -381 -1065 0
23 78 -88 382 1066 0
23 78 -88 382 -1066 0
23 78 -88 -382 1067 0
23 78 -88 -382 -1067 0
13 63 -77 383 1068 0
13 63 -77 383 -1068 0
13 63 -77 -383 1069 0
13 63 -77 -383 -1069 0
-69 72 -95 384 1070 0
-69 72 -95 384 -1070 0
-69 72 -95 -384 1071 0
-69 72 -95 -384 -1071 0
2 -27 54 385 1072 0
2 -27 54 385 -1072 0
2 -27 54 -385 1073 0
2 -27 54 -385 -1073 0
-53 59 89 386 1074 0
-53 59 89 386 -1074 0
-53 59 89 -386 1075 0
-53 59 89 -386 -1075 0
-87 92 95 387 1076 0
-87 92 95 387 -1076 0
-87 92 95 -387 1077 0
-87 92 95 -387 -1077 0
-77 92 -98 388 1078 0
-77 92 -98 388 -1078 0
-77 92 -98 -388 1079 0
-77 92 -98 -388 -1079 0
-75 85 -90 389 1080 0
-75 85 -90 389 -1080 0
-75 85 -90 -389 1081 0
-75 85 -90 -389 -1081 0
-1 36 72 390 1082 0
-1 36 72 390 -1082 0
-1 36 72 -390 1083 0
-1 36 72 -390 -1083 0
-15 -45 78 391 1084 0
-15 -45 78 391 -1084 0
-15 -45 78 -391 1085 0
-15 -45 78 -391 -1085 0
5 21 100 392 1086 0
5 21 100 392 -1086 0
5 21 100 -392 1087 0
5 21 100 -392 -1087 0
5 35 41 393 1088 0
5 35 41 393 -1088 0
5 35 41 -393 1089 0
5 35 41 -393 -1089 0
-20 -23 96 394 1090 0
-20 -23 96 394 -1090 0
-20 -23 96 -394 1091 0
-20 -23 96 -394 -1091 0
30 76 -88 395 1092 0
30 76 -88 395 -1092 0
30 76 -88 -395 1093 0
30 76 -88 -395 -1093 0
41 82 97 396 1094 0
41 82 97 396 -1094 0
41 82 97 -396 1095 0
41 82 97 -396 -1095 0
6 -37 -44 397 1096 0
6 -37 -44 397 -1096 0
6 -37 -44 -397 1097 0
6 -37 -44 -397 -1097 0
-23 -32 88 398 1098 0
-23 -32 88 398 -1098 0
-23 -32 88 -398 1099 0
-23 -32 88 -398 -1099 0
-16 34 88 399 1100 0
-16 34 88 399 -1100 0
-16 34 88 -399 1101 0
-16 34 88 -399 -1101 0
-3 60 96 400 1102 0
-3 60 96 400 -1102 0
-3 60 96 -400 1103 0
-3 60 96 -400 -1103 0
-45 64 73 401 1104 0
-45 64 73 401 -1104 0
-45 64 73 -401 1105 0
-45 64 73 -401 -1105 0
5 -75 80 402 1106 0
5 -75 80 402 -1106 0
5 -75 80 -402 1107 0
5 -75 80 -402 -1107 0
-17 75 90 403 1108 0
-17 75 90 403 -1108 0
-17 75 90 -403 1109 0
-17 75 90 -403 -1109 0
15 42 71 404 1110 0
15 42 71 404 -1110 0
15 42 71 -404 1111 0
15 42 71 -404 -1111 0
24 -36 -38 405 1112 0
24 -36 -38 405 -1112 0
24 -36 -38 -405 1113 0
24 -36 -38 -405 -1113 0
1 -5 -38 406 1114 0
1 -5 -38 406 -1114 0
1 -5 -38 -406 1115 0
1 -5 -38 -406 -1115 0
-11 14 -63 407 1116 0
-11 14 -63 407 -1116 0
-11 14 -63 -407 1117 0
-11 14 -63 -407 -1117 0
-48 84 87 408 1118 0
-48 84 87 408 -1118 0
-48 84 87 -408 1119 0
-48 84 87 -408 -1119 0
31 -72 -78 409 1120 0
31 -72 -78 409 -1120 0
31 -72 -78 -409 1121 0
31 -72 -78 -409 -1121 0
-29 35 45 410 1122 0
-29 35 45 410 -1122 0
-29 35 45 -410 1123 0
-29 35 45 -410 -1123 0
-10 -67 -71 411 1124 0
-10 -67 -71 411 -1124 0
-10 -67 -71 -411 1125 0
-10 -67 -71 -411 -1125 0
18 31 -54 412 1126 0
18 31 -54 412 -1126 0
18 31 -54 -412 1127 0
18 31 -54 -412 -1127 0
5 17 59 413 1128 0
5 17 59 413 -1128 0
5 17 59 -413 1129 0
5 17 59 -413 -1129 0
22 42 -95 414 1130 0
22 42 -95 414 -1130 0
22 42 -95 -414 1131 0
22 42 -95 -414 -1131 0
-16 17 90 415 1132 0
-16 17 90 415 -1132 0
-16 17 90 -415 1133 0
-16 17 90 -415 -1133 0
-5 23 -43 416 1134 0
-5 23 -43 416 -1134 0
-5 23 -43 -416 1135 0
-5 23 -43 -416 -1135 0
46 73 -88 417 1136 0
46 73 -88 417 -1136 0
46 73 -88 -417 1137 0
46 73 -88 -417 -1137 0
-22 -59 96 418 1138 0
-22 -59 96 418 -1138 0
-22 -59 96 -418 1139 0
-22 -59 96 -418 -1139 0
-24 -27 81 419 1140 0
-24 -27 81 419 -1140 0
-24 -27 81 -419 1141 0
-24 -27 81 -419 -1141 0
47 73 87 420 1142 0
47 73 87 420 -1142 0
47 73 87 -420 1143 0
47 73 87 -420 -1143 0
14 27 35 421 1144 0
14 27 35 421 -1144 0
14 27 35 -421 1145 0
14 27 35 -421 -1145 0
-12 -48 82 422 1146 0
-12 -48 82 422 -1146 0
-12 -48 82 -422 1147 0
-12 -48 82 -422 -1147 0
39 43 48 423 1148 0
39 43 48 423 -1148 0
39 43 48 -423 1149 0
39 43 48 -423 -1149 0
-17 -18 99 424 1150 0
-17 -18 99 424 -1150 0
-17 -18 99 -424 1151 0
-17 -18 99 -424 -1151 0
-22 -35 -80 425 1152 0
-22 -35 -80 425 -1152 0
-22 -35 -80 -425 1153 0
-22 -35 -80 -425 -1153 0
51 57 -92 426 1154 0
51 57 -92 426 -1154 0
51 57 -92 -426 1155 0
51 57 -92 -426 -1155 0
8 -39 59 427 1156 0
8 -39 59 427 -1156 0
8 -39 59 -427 1157 0
8 -39 59 -427 -1157 0
-6 -18 -21 428 1158 0
-6 -18 -21 428 -1158 0
-6 -18 -21 -428 1159 0
-6 -18 -21 -428 -1159 0
-29 -45 -65 429 1160 0
-29 -45 -65 429 -1160 0
-29 -45 -65 -429 1161 0
-29 -45 -65 -429 -1161 0
-4 16 -33 430 1162 0
-4 16 -33 430 -1162 0
-4 16 -33 -430 1163 0
-4 16 -33 -430 -1163 0
37 -64 70 431 1164 0
37 -64 70 431 -1164 0
37 -64 70 -431 1165 0
37 -64 70 -431 -1165 0
-6 96 98 432 1166 0
-6 96 98 432 -1166 0
-6 96 98 -432 1167 0
-6 96 98 -432 -1167 0
21 34 -78 433 1168 0
21 34 -78 433 -1168 0
21 34 -78 -433 1169 0
21 34 -78 -433 -1169 0
-2 -15 -53 434 1170 0
-2 -15 -53 434 -1170 0
-2 -15 -53 -434 1171 0
-2 -15 -53 -434 -1171 0
62 -84 97 435 1172 0
62 -84 97 435 -1172 0
62 -84 97 -435 1173 0
62 -84 97 -435 -1173 0
76 -84 88 436 1174 0
76 -84 88 436 -1174 0
76 -84 88 -436 1175 0
76 -84 88 -436 -1175 0
21 -85 -88 437 1176 0
21 -85 -88 437 -1176 0
21 -85 -88 -437 1177 0
21 -85 -88 -437 -1177 0
-3 -48 88 438 1178 0
-3 -48 88 438 -1178 0
-3 -48 88 -438 1179 0
-3 -48 88 -438 -1179 0
24 -33 -35 439 1180 0
24 -33 -35 439 -1180 0
24 -33 -35 -439 1181 0
24 -33 -35 -439 -1181 0
6 -47 95 440 1182 0
6 -47 95 440 -1182 0
6 -47 95 -440 1183 0
6 -47 95 -440 -1183 0
1 8 -24 441 1184 0
1 8 -24 441 -1184 0
1 8 -24 -441 1185 0
1 8 -24 -441 -1185 0
31 48 95 442 1186 0
31 48 95 442 -1186 0
31 48 95 -442 1187 0
31 48 95 -442 -1187 0
-12 -52 55 443 1188 0
-12 -52 55 443 -1188 0
-12 -52 55 -443 1189 0
-12 -52 55 -443 -1189 0
-89 -95 100 444 1190 0
-89 -95 100 444 -1190 0
-89 -95 100 -444 1191 0
-89 -95 100 -444 -1191 0
-23 81 96 445 1192 0
-23 81 96 445 -1192 0
-23 81 96 -445 1193 0
-23 81 96 -445 -1193 0
52 -86 -95 446 1194 0
52 -86 -95 446 -1194 0
52 -86 -95 -446 1195 0
52 -86 -95 -446 -1195 0
-22 50 -84 447 1196 0
-22 50 -84 447 -1196 0
-22 50 -84 -447 1197 0
-22 50 -84 -447 -1197 0
10 26 61 448 1198 0
10 26 61 448 -1198 0
10 26 61 -448 1199 0
10 26 61 -448 -1199 0
-3 -6 -16 449 1200 0
-3 -6 -16 449 -1200 0
-3 -6 -16 -449 1201 0
-3 -6 -16 -449 -1201 0
-5 -7 32 450 1202 0
-5 -7 32 450 -1202 0
-5 -7 32 -450 1203 0
-5 -7 32 -450 -1203 0
-83 85 100 451 1204 0
-83 85 100 451 -1204 0
-83 85 100 -451 1205 0
-83 85 100 -451 -1205 0
26 42 -55 452 1206 0
26 42 -55 452 -1206 0
26 42 -55 -452 1207 0
26 42 -55 -452 -1207 0
41 -73 99 453 1208 0
41 -73 99 453 -1208 0
41 -73 99 -453 1209 0
41 -73 99 -453 -1209 0
-12 27 -99 454 1210 0
-12 27 -99 454 -1210 0
-12 27 -99 -454 1211 0
-12 27 -99 -454 -1211 0
1 -40 74 455 1212 0
1 -40 74 455 -1212 0
1 -40 74 -455 1213 0
1 -40 74 -455 -1213 0
-24 31 -76 456 1214 0
-24 31 -76 456 -1214 0
-24 31 -76 -456 1215 0
-24 31 -76 -456 -1215 0
2 15 -47 457 1216 0
2 15 -47 457 -1216 0
2 15 -47 -457 1217 0
2 15 -47 -457 -1217 0
-46 -64 99 458 1218 0
-46 -64 99 458 -1218 0
-46 -64 99 -458 1219 0
-46 -64 99 -458 -1219 0
-19 -62 -93 459 1220 0
-19 -62 -93 459 -1220 0
-19 -62 -93 -459 1221 0
-19 -62 -93 -459 -1221 0
15 41 -72 460 1222 0
15 41 -72 460 -1222 0
15 41 -72 -460 1223 0
15 41 -72 -460 -1223 0
-14 39 -68 461 1224 0
-14 39 -68 461 -1224 0
-14 39 -68 -461 1225 0
-14 39 -68 -461 -1225 0
-37 39 45 462 1226 0
-37 39 45 462 -1226 0
-37 39 45 -462 1227 0
-37 39 45 -462 -1227 0
2 61 -92 463 1228 0
2 61 -92 463 -1228 0
2 61 -92 -463 1229 0
2 61 -92 -463 -1229 0
42 56 -67 464 1230 0
42 56 -67 464 -1230 0
42 56 -67 -464 1231 0
42 56 -67 -464 -1231 0
-81 86 -96 465 1232 0
-81 86 -96 465 -1232 0
-81 86 -96 -465 1233 0
-81 86 -96 -465 -1233 0
7 -66 -98 466 1234 0
7 -66 -98 466 -1234 0
7 -66 -98 -466 1235 0
7 -66 -98 -466 -1235 0
-23 67 -82 467 1236 0
-23 67 -82 467 -1236 0
-23 67 -82 -467 1237 0
-23 67 -82 -467 -1237 0
9 29 -58 468 1238 0
9 29 -58 468 -1238 0
9 29 -58 -468 1239 0
9 29 -58 -468 -1239 0
44 -45 -50 469 1240 0
44 -45 -50 469 -1240 0
44 -45 -50 -469 1241 0
44 -45 -50 -469 -1241 0
49 -67 69 470 1242 0
49 -67 69 470 -1242 0
49 -67 69 -470 1243 0
49 -67 69 -470 -1243 0
-2 36 71 471 1244 0
-2 36 71 471 -1244 0
-2 36 71 -471 1245 0
-2 36 71 -471 -1245 0
46 53 77 472 1246 0
46 53 77 472 -1246 0
46 53 77 -472 1247 0
46 53 77 -472 -1247 0
-2 28 33 473 1248 0
-2 28 33 473 -1248 0
-2 28 33 -473 1249 0
-2 28 33 -473 -1249 0
-16 -51 -100 474 1250 0
-16 -51 -100 474 -1250 0
-16 -51 -100 -474 1251 0
-16 -51 -100 -474 -1251 0
-3 50 56 475 1252 0
-3 50 56 475 -1252 0
-3 50 56 -475 1253 0
-3 50 56 -475 -1253 0
31 -35 -87 476 1254 0
31 -35 -87 476 -1254 0
31 -35 -87 -476 1255 0
31 -35 -87 -476 -1255 0
-13 55 -58 477 1256 0
-13 55 -58 477 -1256 0
-13 55 -58 -477 1257 0
-13 55 -58 -477 -1257 0
-13 -43 80 478 1258 0
-13 -43 80 478 -1258 0
-13 -43 80 -478 1259 0
-13 -43 80 -478 -1259 0
-27 -49 72 479 1260 0
-27 -49 72 479 -1260 0
-27 -49 72 -479 1261 0
-27 -49 72 -479 -1261 0
29 34 -79 480 1262 0
29 34 -79 480 -1262 0
29 34 -79 -480 1263 0
29 34 -79 -480 -1263 0
-40 -49 84 481 1264 0
-40 -49 84 481 -1264 0
-40 -49 84 -481 1265 0
-40 -49 84 -481 -1265 0
-43 -72 88 482 1266 0
-43 -72 88 482 -1266 0
-43 -72 88 -482 1267 0
-43 -72 88 -482 -1267 0
-49 65 -92 483 1268 0
-49 65 -92 483 -1268 0
-49 65 -92 -483 1269 0
-49 65 -92 -483 -1269 0
-35 64 71 484 1270 0
-35 64 71 484 -1270 0
-35 64 71 -484 1271 0
-35 64 71 -484 -1271 0
-21 -28 96 485 1272 0
-21 -28 96 485 -1272 0
-21 -28 96 -485 1273 0
-21 -28 96 -485 -1273 0
-13 45 98 486 1274 0
-13 45 98 486 -1274 0
-13 45 98 -486 1275 0
-13 45 98 -486 -1275 0
-15 28 -78 487 1276 0
-15 28 -78 487 -1276 0
-15 28 -78 -487 1277 0
-15 28 -78 -487 -1277 0
-6 26 90 488 1278 0
-6 26 90 488 -1278 0
-6 26 90 -488 1279 0
-6 26 90 -488 -1279 0
-39 -80 -84 489 1280 0
-39 -80 -84 489 -1280 0
-39 -80 -84 -489 1281 0
-39 -80 -84 -489 -1281 0
-44 -46 66 490 1282 0
-44 -46 66 490 -1282 0
-44 -46 66 -490 1283 0
-44 -46 66 -490 -1283 0
44 54 60 491 1284 0
44 54 60 491 -1284 0
44 54 60 -491 1285 0
44 54 60 -491 -1285 0
-23 91 -100 492 1286 0
-23 91 -100 492 -1286 0
-23 91 -100 -492 1287 0
-23 91 -100 -492 -1287 0
-59 -66 85 493 1288 0
-59 -66 85 493 -1288 0
-59 -66 85 -493 1289 0
-59 -66 85 -493 -1289 0
20 28 -99 494 1290 0
20 28 -99 494 -1290 0
20 28 -99 -494 1291 0
20 28 -99 -494 -1291 0
59 -77 -82 495 1292 0
59 -77 -82 495 -1292 0
59 -77 -82 -495 1293 0
59 -77 -82 -495 -1293 0
49 54 -60 496 1294 0
49 54 -60 496 -1294 0
49 54 -60 -496 1295 0
49 54 -60 -496 -1295 0
-12 63 68 497 1296 0
-12 63 68 497 -1296 0
-12 63 68 -497 1297 0
-12 63 68 -497 -1297 0
-8 50 90 498 1298 0
-8 50 90 498 -1298 0
-8 50 90 -498 1299 0
-8 50 90 -498 -1299 0
-30 -45 53 499 1300 0
-30 -45 53 499 -1300 0
-30 -45 53 -499 1301 0
-30 -45 53 -499 -1301 0
-56 71 -97 500 1302 0
-56 71 -97 500 -1302 0
-56 71 -97 -500 1303 0
-56 71 -97 -500 -1303 0
-7 -20 52 501 1304 0
-7 -20 52 501 -1304 0
-7 -20 52 -501 1305 0
-7 -20 52 -501 -1305 0
-2 33 87 502 1306 0
-2 33 87 502 -1306 0
-2 33 87 -502 1307 0
-2 33 87 -502 -1307 0
49 56 -74 503 1308 0
49 56 -74 503 -1308 0
49 56 -74 -503 1309 0
49 56 -74 -503 -1309 0
